
Gurobi 9.1.0 (linux64, Python) logging started Sun Nov 15 15:13:54 2020

Using license file /home/fco/gurobi.lic
Set parameter LogFile to value gurobi.log
Academic license - for non-commercial use only - expires 2021-01-11
